Version identifier: 22.1.0.0 | 2022-03-09 | 1a383f8ce
CPXPARAM_Threads                                 1
CPXPARAM_MIP_Strategy_VariableSelect             3
CPXPARAM_TimeLimit                               600
Tried aggregator 1 time.
Reduced MIP has 3325 rows, 13500 columns, and 140995 nonzeros.
Reduced MIP has 8100 binaries, 5400 generals, 0 SOSs, and 0 indicators.
Presolve time = 0.07 sec. (62.57 ticks)
Found incumbent of value 3410.000000 after 0.17 sec. (144.03 ticks)
Probing time = 0.01 sec. (11.36 ticks)
Tried aggregator 1 time.
Detecting symmetries...
Reduced MIP has 3325 rows, 13500 columns, and 140995 nonzeros.
Reduced MIP has 8100 binaries, 5400 generals, 0 SOSs, and 0 indicators.
Presolve time = 0.08 sec. (76.21 ticks)
Probing time = 0.01 sec. (11.36 ticks)
Clique table members: 303.
MIP emphasis: balance optimality and feasibility.
MIP search method: dynamic search.
Parallel mode: none, using 1 thread.
Root relaxation solution time = 0.16 sec. (136.00 ticks)

        Nodes                                         Cuts/
   Node  Left     Objective  IInf  Best Integer    Best Bound    ItCnt     Gap

*     0+    0                         3410.0000        0.0000           100.00%
      0     0        0.0000  1435     3410.0000        0.0000     1262  100.00%
*     0+    0                            0.0000        0.0000             0.00%
      0     0        cutoff              0.0000        0.0000     1262    0.00%
Elapsed time = 5.35 sec. (5825.12 ticks, tree = 0.01 MB, solutions = 2)

Root node processing (before b&c):
  Real time             =    5.35 sec. (5825.62 ticks)
Sequential b&c:
  Real time             =    0.00 sec. (0.00 ticks)
                          ------------
Total (root+branch&cut) =    5.35 sec. (5825.62 ticks)
Primal number of violations:	0
Dual number of violations:	0
Status:	Optimal
Time:	5.37
Sequence:
	23
	23
	23
	0
	4
	0
	23
	23
	23
	4
	0
	0
	23
	20
	14
	22
	4
	10
	23
	20
	7
	3
	20
	21
	12
	20
	13
	23
	20
	23
	0
	20
	23
	13
	23
	23
	12
	0
	12
	20
	2
	6
	5
	21
	20
	19
	2
	12
	15
	12
	8
	12
	13
	4
	17
	17
	20
	14
	7
	10
	12
	4
	12
	11
	4
	10
	12
	12
	10
	10
	0
	12
	12
	12
	0
	0
	8
	15
	10
	10
	10
	15
	3
	1
	10
	19
	14
	0
	12
	2
	19
	19
	4
	7
	0
	6
	14
	9
	0
	0
	16
	16
	20
	16
	0
	0
	23
	23
	23
	15
	2
	16
	23
	0
	20
	23
	23
	2
	0
	20
	2
	13
	2
	0
	24
	4
	24
	14
	8
	2
	20
	23
	13
	20
	23
	0
	14
	23
	2
	8
	10
	2
	12
	2
	13
	4
	10
	2
	2
	16
	8
	8
	23
	23
	14
	15
	8
	0
	23
	4
	13
	22
	2
	4
	13
	8
	8
	2
	2
	0
	8
	8
	2
	13
	2
	19
	0
	18
	4
	22
	10
	3
	22
	7
	2
	5
	4
	21
	12
	14
	4
	23
	2
	13
	2
	19
	4
	14
	17
	2
	4
	0
	14
	24
	4
	12
	0
	2
	2
	0
	24
	4
	0
	23
	2
	4
	2
	10
	4
	2
	0
	2
	4
	13
	16
	16
	12
	16
	4
	8
	16
	16
	0
	21
	4
	14
	0
	17
	15
	6
	13
	22
	4
	0
	6
	14
	0
	4
	0
	14
	6
	0
	2
	17
	0
	2
	16
	20
	2
	0
	0
	14
	6
	17
	2
	4
	11
	0
	15
	12
	2
	4
	17
	9
	24
	0
	2
	12
	6
	6
	4
	13
	7
	6
	20
	0
	6
	6
	13
	21
	15
	0
	0
	23
	23
	2
	11
	24
	2
	4
